# 模型基本参数设置     
units metal                 # 单位：金属单位（能量：eV，长度：Å，时间：ps）
atom_style atomic           # 原子风格：单原子表示
boundary f f f              # 边界条件：x、y周期，z固定
timestep 0.001              # 时间步长：1 fs
neighbor 2.0 bin            # 邻域搜索半径：2.0，使用 bin 方法
neigh_modify every 1 delay 0 check yes  
variable model_hi equal 3   # 定义变量 model_hi=3，用于后续区域定义

# 建立模型（晶格与原子创建）
lattice fcc 3.615 orient x 1 -1 0 orient y 1 1 -2 orient z 1 1 1  
region box block -11 21 -11 21 -2 8 units lattice  # 扩展盒子，z 方向下方增加一个晶格常数的空白区域
create_box 3 box            # 创建包含3种原子的模拟盒子

# 创建基底区域（沉积区域下方的固体基底）
region substrate block 0 10 0 10 0 ${model_hi} units lattice  
create_atoms 1 region substrate  # 在基底区域放置类型1原子（铜）
group substrate region substrate  # 将基底区域内的原子归为 substrate 组

# 定义原子间的相互作用势函数
pair_style hybrid/overlay lj/cut 10.0 morse 6.5 airebo 4.0 eam  
pair_coeff 1 1 eam Cu_u6.eam                   # Cu-Cu: EAM 
pair_coeff 2 2 lj/cut  0.01276  3.81 9.525        # C1-C1: LJ 0.02578 3.0825 9.25  4.66344 0.01276  3.81 9.525
pair_coeff 2 3 none           # C1-C2: LJ 0.00598 3.605 9.0125  4.41252 0.0028 3.4 8.5
pair_coeff 3 3 none         # C2-C2: LJ  0.0028 3.4 8.5  4.1616
pair_coeff 1 1 morse 0.3429 1.3588 2.860 8.37387            # Cu-Cu: Morse potential
pair_coeff 1 2 morse 0.1 1.70 2.22 6.5            # Cu-C1: Morse potential 0.10 1.70 2.22 6.5
pair_coeff 1 3 morse 0.1 1.70 2.22 6.5             # Cu-C2: Morse potential 0.120 1.05 2.054 6.75
pair_coeff * * airebo CH.airebo NULL NULL C     # C原子间：airebo势


# 定义各原子种类的质量
mass 1 63.5   # 铜原子
mass 2 12.0   # C1原子
mass 3 12.0   # C2原子

# 定义添加原子的组（例如，C1原子）
group addatoms type 2   # 包含类型2的原子（C1）

# 定义一个动态的可移动原子区域
variable mobile_lo equal ${model_hi}-2         # 移动区域下界：model_hi-2
region mobile block 0 10 0 10 ${mobile_lo} 8 units lattice  # 修改上界为15，保证在盒内
group mobile region mobile  # 将移动区域中的原子归为 mobile 组

# 定义 C2（沉积）区域
variable deposit_re_lo equal 2.8              # 沉积区域下界，单位：晶格常数 3
variable deposit_re_up equal ${deposit_re_lo}+1  # 沉积区域上界 0.54
region deposit_re block 0 10 0 10 ${deposit_re_lo} ${deposit_re_up} units lattice  # 创建沉积区域

# 能量最小化（使用共轭梯度方法）  
min_style cg
minimize 1.0e-8 1.0e-10 10000 100000

# 定义 z < 3 的铜原子
region r_copper_fixed block INF INF INF INF -7.23 10.845 units box
group copper_fixed region r_copper_fixed
fix fix_copper_fixed copper_fixed setforce 0.0 0.0 0.0

# 重置时间步计数，将能量最小化之后的构象作为step0
reset_timestep 0

# 定义计算方法与输出
compute add addatoms temp                   # 计算 addatoms 组温度
compute_modify add dynamic/dof yes extra/dof 0  
variable nu_addatoms equal count(addatoms)   # 计算 addatoms 组中原子的数量
variable nu_deposit equal count(deposit_re)    # 计算沉积区域中的原子数量
variable current_step equal step             # 当前步数

# 输出原子数量信息
fix mycount addatoms print 1000 "${current_step} ${nu_addatoms} ${nu_deposit}" file addatoms_count.txt  # 每1000步输出一次信息

# 对 C 原子施加 NVT 积分
group carbon type 2 3  # 定义所有C原子组，排除铜原子
fix 1 carbon nvt temp 300 1100 0.01

# 对 铜 原子中 z>3 部分施加 Langevin 动力学
group copper type 1
region r_copper_hot block -3 13 -3 13 3 8 units lattice
group region_copper_hot region r_copper_hot
group g_copper_hot intersect copper region_copper_hot
fix 2 g_copper_hot langevin 300 1100 0.01 587283

# 创建一个新的能量耗散积分器
fix 3 all nve

# 定义一个基底区域用于沉积
region slab block 0 10 0 10 4.5 7.5 units lattice  # 修改沉积基底区域：z从5到15（上界调整为盒子高度）
fix 4 addatoms deposit 1000 2 500 12345 region slab near 1.0 vx 0.0 0.0 vy 0.0 0.0 vz -0.1 -0.1 # 在 slab 区域沉积原子 0.1 stable


# 原有的 xy 方向壁面（使用 wall/lj126）- 已改为反射壁面，注释保留
fix 11 addatoms wall/reflect xlo 0.0         # 设置 x 方向低边界反射壁面为 x=0
fix 12 addatoms wall/reflect xhi 10.0         # 设置 x 方向高边界反射壁面为 x=10
fix 13 addatoms wall/reflect ylo 0.0         # 设置 y 方向低边界反射壁面为 y=0
fix 14 addatoms wall/reflect yhi 10.0         # 设置 y 方向高边界反射壁面为 y=10

# 定义 C1（沉积）区域（C原子生成区域）
region C1_re block 0 10 0 10 ${deposit_re_up} 8 units lattice  # 修改上界为15，确保区域在盒内
group deposit_re dynamic addatoms region deposit_re every 10  # 每10步更新 addatoms 组中原子到 deposit_re 组
group C1_atom dynamic addatoms region C1_re every 10         # 每10步更新 addatoms 组中原子到 C1_atom 组

# 新增：定义一个组，将固定基底外的所有原子归入该组，即所有的 C 原子和热浴层的 Cu 原子
group nonfixed subtract all substrate

# 新增：对组 nonfixed 施加一个往 z 轴向下的微小力（力大小与原子质量成正比，即 F = m*a）
fix 6 nonfixed gravity 0.0000 vector 0.0 0.0 -0.0

# 定义热力学输出样式
thermo_style custom step atoms temp epair etotal press  # 输出步数、原子数、温度、势能、总能量和压力
thermo 1000                                           # 每1000步输出一次
thermo_modify temp add  

# 定义原子输出（用于后续分析）
dump 1 all custom 100 output.dump id type x y z vx vy vz   # 每100步输出所有原子数据
dump 2 deposit_re custom 100 dump_file.dat id type x y z      # 每100步输出沉积区域原子数据
thermo_modify lost ignore flush yes

# 运行模拟
run 500000 every 1000 "set group deposit_re type 3" "set group C1_atom type 2" "print 'nu_deposit = ${nu_deposit}'" "print 'deposit_re_lo = ${deposit_re_lo}'"
